Optimal - objective value 4.00000000
      8 x_0_8                      1                       0
     22 x_1_8                      1                    0.53
     36 x_2_8                      1         -0.0900000000000013
     50 x_3_8                      1                    -0.3
     68 x_4_12                     1         0.0199999999999995
     78 x_5_8                      1                   -0.12
     85 x_6_1                      1         0.729999999999999
     98 x_7_0                      1                   -0.13
    124 x_8_12                     1                   -0.21
    126 x_9_0                      1         0.459999999999999
    152 x_10_12                    1                   -0.11
    154 x_11_0                     1                       0
    168 x_12_0                     1                   -0.16
    182 x_13_0                     1                   -0.11
    196 y_0                        1                       0
    197 y_1                        1                       0
    204 y_8                        1                       0
    208 y_12                       1                    0.87
